\ENCODING=ISO-8859-1
\Problem name: IloCplex

Minimize
 obj1: - C_1#0 - C_2#1 - C_3#2 + 7
Subject To
 c1:  _e_0_1#3 + _e_0_2#4 + _e_0_3#5 + _e_0_4#6  = 1
 c2:  _e_1_2#7 + _e_1_3#8 + _e_1_4#9  = 1
 c3:  _e_2_1#10 + _e_2_3#11 + _e_2_4#12  = 1
 c4:  _e_3_1#13 + _e_3_2#14 + _e_3_4#15  = 1
 c5:  _e_2_1#10 + _e_3_1#13 + _e_4_1#16  = 1
 c6:  _e_1_2#7 + _e_3_2#14 + _e_4_2#17  = 1
 c7:  _e_1_3#8 + _e_2_3#11 + _e_4_3#18  = 1
 c8:  _e_1_4#9 + _e_2_4#12 + _e_3_4#15  = 1
 c9:  - C_1#0 + 99 _e_0_1#3 + C_0#19 <= 98
 c10: - C_2#1 + 99 _e_0_2#4 + C_0#19 <= 98
 c11: - C_3#2 + 99 _e_0_3#5 + C_0#19 <= 98
 c12: 99 _e_0_4#6 + C_0#19 - C_4#20 <= 99
 c13: 99 _e_1_1#21 <= 98
 c14: C_1#0 - C_2#1 + 99 _e_1_2#7 <= 98
 c15: C_1#0 - C_3#2 + 99 _e_1_3#8 <= 98
 c16: C_1#0 + 99 _e_1_4#9 - C_4#20 <= 99
 c17: - C_1#0 + C_2#1 + 99 _e_2_1#10 <= 98
 c18: 99 _e_2_2#22 <= 98
 c19: C_2#1 - C_3#2 + 99 _e_2_3#11 <= 98
 c20: C_2#1 + 99 _e_2_4#12 - C_4#20 <= 99
 c21: - C_1#0 + C_3#2 + 99 _e_3_1#13 <= 98
 c22: - C_2#1 + C_3#2 + 99 _e_3_2#14 <= 98
 c23: 99 _e_3_3#23 <= 98
 c24: C_3#2 + 99 _e_3_4#15 - C_4#20 <= 99
 c25: C_1#0 <= 1
 c26: C_2#1 <= 2
 c27: C_3#2 <= 4
 c28: C_0#19  = 0
Bounds
 0 <= _e_0_1#3 <= 1
 0 <= _e_0_2#4 <= 1
 0 <= _e_0_3#5 <= 1
 0 <= _e_0_4#6 <= 1
 0 <= _e_1_2#7 <= 1
 0 <= _e_1_3#8 <= 1
 0 <= _e_1_4#9 <= 1
 0 <= _e_2_1#10 <= 1
 0 <= _e_2_3#11 <= 1
 0 <= _e_2_4#12 <= 1
 0 <= _e_3_1#13 <= 1
 0 <= _e_3_2#14 <= 1
 0 <= _e_3_4#15 <= 1
 0 <= _e_4_1#16 <= 1
 0 <= _e_4_2#17 <= 1
 0 <= _e_4_3#18 <= 1
 0 <= _e_1_1#21 <= 1
 0 <= _e_2_2#22 <= 1
 0 <= _e_3_3#23 <= 1
Binaries
 _e_0_1#3  _e_0_2#4  _e_0_3#5  _e_0_4#6  _e_1_2#7  _e_1_3#8  _e_1_4#9 
 _e_2_1#10  _e_2_3#11  _e_2_4#12  _e_3_1#13  _e_3_2#14  _e_3_4#15  _e_4_1#16 
 _e_4_2#17  _e_4_3#18  _e_1_1#21  _e_2_2#22  _e_3_3#23 
End
